NAME /Users/henri/Research/solvers/instances/idol-instances/robust/collection/cbp_Subramanyam_et_al_2020/CapBud_N5_15/models/uncertain_technology_matrix/
ROWS
 N  OBJ
 L  capacity
 L  c_315
 L  c_316
 L  c_317
 L  c_318
 L  c_319
COLUMNS
    MARKER    'MARKER'                 'INTORG'
    x_0        OBJ        -6.71794
    x_0        c_315      1
    x_0        capacity   1.34359
    x_1        OBJ        -3.24083
    x_1        c_316      1
    x_1        capacity   0.648165
    x_2        OBJ        -3.1622
    x_2        c_317      1
    x_2        capacity   0.63244
    x_3        OBJ        -8.33316
    x_3        c_318      1
    x_3        capacity   1.66663
    x_4        OBJ        -7.75803
    x_4        c_319      1
    x_4        capacity   1.55161
    y_0        OBJ        -5.37435
    y_0        c_315      1
    y_0        capacity   1.34359
    y_1        OBJ        -2.59266
    y_1        c_316      1
    y_1        capacity   0.648165
    y_2        OBJ        -2.52976
    y_2        c_317      1
    y_2        capacity   0.63244
    y_3        OBJ        -6.66653
    y_3        c_318      1
    y_3        capacity   1.66663
    y_4        OBJ        -6.20643
    y_4        c_319      1
    y_4        capacity   1.55161
    MARKER    'MARKER'                 'INTEND'
RHS
    RHS       capacity   14.6061
    RHS       c_315      1
    RHS       c_316      1
    RHS       c_317      1
    RHS       c_318      1
    RHS       c_319      1
BOUNDS
 LI BND       x_0        0
 UI BND       x_0        1
 LI BND       x_1        0
 UI BND       x_1        1
 LI BND       x_2        0
 UI BND       x_2        1
 LI BND       x_3        0
 UI BND       x_3        1
 LI BND       x_4        0
 UI BND       x_4        1
 LI BND       y_0        0
 UI BND       y_0        1
 LI BND       y_1        0
 UI BND       y_1        1
 LI BND       y_2        0
 UI BND       y_2        1
 LI BND       y_3        0
 UI BND       y_3        1
 LI BND       y_4        0
 UI BND       y_4        1
ENDATA
